nLocations = 20;
nCities = 30;
nTypes = 5;

p = [28 19 1 37 2 22 35 18 33 6 23 32 21 7 20 40 15 28 22 34 16 38 14 2 32 27 23 11 23 24];
posCities = [[9 4] [11 5] [6 9] [9 8] [3 7] [4 6] [8 10] [2 12] [12 12] [7 3] [12 7] [4 11] [5 11] [11 3] [0 7] [12 2] [8 12] [1 12] [12 0] [4 3] [1 3] [6 0] [8 8] [0 2] [9 12] [5 12] [6 11] [2 10] [9 5] [11 8]];
posLocations = [[3 6] [7 4] [4 9] [7 11] [0 9] [4 7] [2 3] [2 11] [12 8] [7 9] [7 5] [2 1] [0 7] [10 12] [9 6] [5 0] [1 9] [5 10] [10 11] [9 12]];

d_city = [4 9 11 13 16];
cap = [114 130 215 299 335];
cost = [15 16 19 42 49];

d_center = 6.5;
